RT is False
Default write of storage_offers_DA.csv just to have a file (but constraint should be inactive)
Reading model...
...model read.
creating competitive generators file...
...competitive generators recorded.
Loading data...
.. day-ahead data with real-time VRE data read.
Compiling instance...
...instance created.
Creating Offer Mitigation (model will solve as dispatch if TRUE)...
Solving...

Welcome to IBM(R) ILOG(R) CPLEX(R) Interactive Optimizer 12.9.0.0
  with Simplex, Mixed Integer & Barrier Optimizers
5725-A06 5725-A29 5724-Y48 5724-Y49 5724-Y54 5724-Y55 5655-Y21
Copyright IBM Corp. 1988, 2019.  All Rights Reserved.

Type 'help' for a list of available commands.
Type 'help' followed by a command name for more
information on commands.

CPLEX> Logfile 'cplex.log' closed.
Logfile 'C:\Users\llavin\Desktop\test919\logs\tmp958dnryh.cplex.log' open.
CPLEX> New value for parallel optimization mode: -1
CPLEX> New value for mixed integer optimality gap tolerance: 0.01
CPLEX> New value for integrality tolerance: 1e-09
CPLEX> New value for feasibility tolerance: 0.01
CPLEX> New value for deterministic time limit in ticks: 75000
CPLEX> Problem 'C:\Users\llavin\Desktop\test919\logs\tmp4qep6k7k.pyomo.lp' read.
Read time = 0.05 sec. (3.04 ticks)
CPLEX> Problem name         : C:\Users\llavin\Desktop\test919\logs\tmp4qep6k7k.pyomo.lp
Objective sense      : Minimize
Variables            :   26081  [Nneg: 1,  Box: 21616,  Free: 4464]
Objective nonzeros   :    2496
Linear constraints   :   27515  [Less: 14006,  Greater: 4416,  Equal: 9093]
  Nonzeros           :   89267
  RHS nonzeros       :   12271

Variables            : Min LB: -5000.000        Max UB: 1000000.       
Objective nonzeros   : Min   : 15.73158         Max   : 124.0997       
Linear constraints   :
  Nonzeros           : Min   : 0.8500000        Max   : 3000.000       
  RHS nonzeros       : Min   : 0.1750000        Max   : 5000.000       
CPLEX> CPXPARAM_Parallel                                -1
CPXPARAM_Simplex_Tolerances_Feasibility          0.01
CPXPARAM_DetTimeLimit                            75000
CPXPARAM_MIP_Tolerances_MIPGap                   0.01
CPXPARAM_MIP_Tolerances_Integrality              1.0000000000000001e-09
Parallel mode: opportunistic, using up to 32 threads for concurrent optimization.
Tried aggregator 1 time.
LP Presolve eliminated 21353 rows and 15463 columns.
Aggregator did 773 substitutions.
Reduced LP has 5389 rows, 9845 columns, and 31806 nonzeros.
Presolve time = 0.05 sec. (30.46 ticks)
Symmetry aggregator did 5563 additional substitutions.

Iteration log . . .
Iteration:     1   Dual objective     =             0.000000
Perturbation started.
Iteration:   101   Dual objective     =             0.000000
Iteration:   335   Dual objective     =             1.229895
Iteration:   593   Dual objective     =             1.753815
Iteration:   851   Dual objective     =             1.890474
Iteration:  1067   Dual objective     =             2.005569
Iteration:  1336   Dual objective     =             2.053476
Iteration:  1580   Dual objective     =             2.081607
Iteration:  1801   Dual objective     =          3377.127689
Iteration:  1987   Dual objective     =         94737.453472
Iteration:  2170   Dual objective     =        105574.597013
Iteration:  2361   Dual objective     =        143583.332723
Iteration:  2649   Dual objective     =        153984.854539
Iteration:  3019   Dual objective     =        159098.860234
Removing perturbation.
Dual superbasis not built.
Using devex.

Primal simplex solved model.


Primal simplex - Optimal:  Objective =  1.5911915861e+05
Solution time =    0.17 sec.  Iterations = 1644 (1040)
Deterministic time = 79.43 ticks  (464.53 ticks/sec)

CPLEX> Solution written to file 'C:\Users\llavin\Desktop\test919\logs\tmp29ljyaiw.cplex.sol'.
CPLEX> Exporting results... 
...storage offer mitigation file created
Converting model to MPEC...
...converted
NOTE: initial MIP solve with only storage competitive to get feasible solution
Solving...

Welcome to IBM(R) ILOG(R) CPLEX(R) Interactive Optimizer 12.9.0.0
  with Simplex, Mixed Integer & Barrier Optimizers
5725-A06 5725-A29 5724-Y48 5724-Y49 5724-Y54 5724-Y55 5655-Y21
Copyright IBM Corp. 1988, 2019.  All Rights Reserved.

Type 'help' for a list of available commands.
Type 'help' followed by a command name for more
information on commands.

CPLEX> Logfile 'cplex.log' closed.
Logfile 'C:\Users\llavin\Desktop\test919\logs\tmplaxx429_.cplex.log' open.
CPLEX> New value for parallel optimization mode: -1
CPLEX> New value for mixed integer optimality gap tolerance: 0.01
CPLEX> New value for integrality tolerance: 1e-09
CPLEX> New value for feasibility tolerance: 0.01
CPLEX> New value for deterministic time limit in ticks: 75000
CPLEX> Problem 'C:\Users\llavin\Desktop\test919\logs\tmpwhs8hkkc.pyomo.lp' read.
Read time = 0.23 sec. (14.78 ticks)
CPLEX> Problem name         : C:\Users\llavin\Desktop\test919\logs\tmpwhs8hkkc.pyomo.lp
Objective sense      : Maximize
Variables            :   53805  [Nneg: 1,  Box: 22000,  Free: 4464,
                                 Binary: 27340]
Objective nonzeros   :    8980
Linear constraints   :  123205  [Less: 41346,  Greater: 59096,  Equal: 22763]
  Nonzeros           :  291801
  RHS nonzeros       :   67491

Variables            : Min LB: -5000.000        Max UB: 1000000.       
Objective nonzeros   : Min   : 0.1750000        Max   : 772.4167       
Linear constraints   :
  Nonzeros           : Min   : 0.1750000        Max   : 1000000.       
  RHS nonzeros       : Min   : 0.1750000        Max   : 1000000.       
CPLEX> CPXPARAM_Parallel                                -1
CPXPARAM_Simplex_Tolerances_Feasibility          0.01
CPXPARAM_DetTimeLimit                            75000
CPXPARAM_MIP_Tolerances_MIPGap                   0.01
CPXPARAM_MIP_Tolerances_Integrality              1.0000000000000001e-09
Tried aggregator 3 times.
MIP Presolve eliminated 88691 rows and 18991 columns.
MIP Presolve added 3400 rows and 0 columns.
MIP Presolve modified 24856 coefficients.
Aggregator did 13009 substitutions.
Reduced MIP has 24905 rows, 21249 columns, and 71049 nonzeros.
Reduced MIP has 8392 binaries, 0 generals, 0 SOSs, and 0 indicators.
Presolve time = 0.30 sec. (176.39 ticks)
Probing fixed 390 vars, tightened 2800 bounds.
Probing time = 1.23 sec. (898.48 ticks)
Tried aggregator 2 times.
MIP Presolve eliminated 880 rows and 781 columns.
MIP Presolve modified 2192 coefficients.
Aggregator did 36 substitutions.
Reduced MIP has 23989 rows, 20432 columns, and 68395 nonzeros.
Reduced MIP has 8002 binaries, 0 generals, 0 SOSs, and 0 indicators.
Presolve time = 0.11 sec. (68.15 ticks)
Probing time = 0.03 sec. (15.90 ticks)
Clique table members: 6574.
MIP emphasis: balance optimality and feasibility.
MIP search method: dynamic search.
Parallel mode: opportunistic, using up to 32 threads.
Root relaxation solution time = 0.41 sec. (293.35 ticks)

        Nodes                                         Cuts/
   Node  Left     Objective  IInf  Best Integer    Best Bound    ItCnt     Gap

      0     0     3394.9900  1700                   3394.9900     6573         
      0     0     3394.2299     8                     Cuts: 7     6581         
      0     0     3394.2299     8                     Cuts: 8     6585         
      0     0     3394.2299     8                   Covers: 1     6586         
*     0+    0                         1630.4723     3394.2299           108.17%
*     0+    0                         3368.8371     3394.2299             0.75%

Implied bound cuts applied:  1
Flow cuts applied:  7
Gomory fractional cuts applied:  4

Root node processing (before b&c):
  Real time             =    8.09 sec. (5747.58 ticks)
Parallel b&c, 32 threads:
  Real time             =    0.00 sec. (0.00 ticks)
  Sync time (average)   =    0.00 sec.
  Wait time (average)   =    0.00 sec.
                          ------------
Total (root+branch&cut) =    8.09 sec. (5747.58 ticks)

Solution pool: 2 solutions saved.

MIP - Integer optimal, tolerance (0.01/1e-06):  Objective =  3.3688371238e+03
Current MIP best bound =  3.3942299323e+03 (gap = 25.3928, 0.75%)
Solution time =    8.14 sec.  Iterations = 6586  Nodes = 0 (1)
Deterministic time = 5747.73 ticks  (706.02 ticks/sec)

CPLEX> Incumbent solution written to file 'C:\Users\llavin\Desktop\test919\logs\tmpnqo_m39p.cplex.sol'.
CPLEX> NOTE: no warmstart specified for MIP iteration, default behavior is true
NOTE: resolving with all competitive generators using storage-only solution to warmstart
Solving...

Welcome to IBM(R) ILOG(R) CPLEX(R) Interactive Optimizer 12.9.0.0
  with Simplex, Mixed Integer & Barrier Optimizers
5725-A06 5725-A29 5724-Y48 5724-Y49 5724-Y54 5724-Y55 5655-Y21
Copyright IBM Corp. 1988, 2019.  All Rights Reserved.

Type 'help' for a list of available commands.
Type 'help' followed by a command name for more
information on commands.

CPLEX> Logfile 'cplex.log' closed.
Logfile 'C:\Users\llavin\Desktop\test919\logs\tmp6h4rmsvv.cplex.log' open.
CPLEX> New value for parallel optimization mode: -1
CPLEX> New value for mixed integer optimality gap tolerance: 0.01
CPLEX> New value for integrality tolerance: 1e-09
CPLEX> New value for feasibility tolerance: 0.01
CPLEX> New value for deterministic time limit in ticks: 75000
CPLEX> Problem 'C:\Users\llavin\Desktop\test919\logs\tmpovldpn8h.pyomo.lp' read.
Read time = 0.23 sec. (14.81 ticks)
CPLEX> MIP start file 'C:\Users\llavin\Desktop\test919\logs\tmpzzzn2m4t.cplex.mst' read.
CPLEX> Problem name         : C:\Users\llavin\Desktop\test919\logs\tmpovldpn8h.pyomo.lp
Objective sense      : Maximize
Variables            :   54525  [Nneg: 1,  Box: 22720,  Free: 4464,
                                 Binary: 27340]
Objective nonzeros   :    9676
Linear constraints   :  123205  [Less: 41346,  Greater: 59096,  Equal: 22763]
  Nonzeros           :  291801
  RHS nonzeros       :   67491

Variables            : Min LB: -5000.000        Max UB: 1000000.       
Objective nonzeros   : Min   : 0.1750000        Max   : 760.8083       
Linear constraints   :
  Nonzeros           : Min   : 0.1750000        Max   : 1000000.       
  RHS nonzeros       : Min   : 0.1750000        Max   : 1000000.       
CPLEX> CPXPARAM_Parallel                                -1
CPXPARAM_Simplex_Tolerances_Feasibility          0.01
CPXPARAM_DetTimeLimit                            75000
CPXPARAM_MIP_Tolerances_MIPGap                   0.01
CPXPARAM_MIP_Tolerances_Integrality              1.0000000000000001e-09
Warning:  No solution found from 1 MIP starts.
Retaining values of one MIP start for possible repair.
Tried aggregator 3 times.
MIP Presolve eliminated 88691 rows and 19711 columns.
MIP Presolve added 3400 rows and 0 columns.
MIP Presolve modified 24856 coefficients.
Aggregator did 13009 substitutions.
Reduced MIP has 24905 rows, 21249 columns, and 71049 nonzeros.
Reduced MIP has 8392 binaries, 0 generals, 0 SOSs, and 0 indicators.
Presolve time = 0.30 sec. (176.76 ticks)
Probing fixed 390 vars, tightened 2800 bounds.
Probing time = 1.23 sec. (898.48 ticks)
Tried aggregator 2 times.
MIP Presolve eliminated 880 rows and 781 columns.
MIP Presolve modified 2192 coefficients.
Aggregator did 36 substitutions.
Reduced MIP has 23989 rows, 20432 columns, and 68395 nonzeros.
Reduced MIP has 8002 binaries, 0 generals, 0 SOSs, and 0 indicators.
Presolve time = 0.09 sec. (68.16 ticks)
Probing time = 0.05 sec. (15.90 ticks)
Clique table members: 6574.
MIP emphasis: balance optimality and feasibility.
MIP search method: dynamic search.
Parallel mode: opportunistic, using up to 32 threads.
Root relaxation solution time = 0.36 sec. (278.44 ticks)

        Nodes                                         Cuts/
   Node  Left     Objective  IInf  Best Integer    Best Bound    ItCnt     Gap

      0     0    85297.2599  1742                  85297.2599     7077         
      0     0    83914.7906   616                   Cuts: 680     7407         
      0     0    83250.2715   519                   Cuts: 313     7553         
      0     0    82962.5765   491                   Cuts: 181     7676         
      0     0    82961.4549   463                   Cuts: 102     7750         
      0     0    82961.4549   458                    Cuts: 64     7865         
      0     0    82958.4603   439                    Cuts: 67     7905         
      0     0    82958.4603   424                    Cuts: 62     7929         
      0     0    82958.4603   417                    Cuts: 50     7958         
      0     0    82478.9633   414                    Cuts: 67     8022         
      0     0    82436.7561   401                    Cuts: 47     8046         
      0     0    82436.7561   399                    Cuts: 21     8048         
Repair heuristic found nothing.
      0    35    infeasible                          Cuts: 12     9081         
Elapsed time = 11.42 sec. (6325.22 ticks, tree = 0.41 MB, solutions = 0)
    566    51    47073.1534   367                  68659.7223    10177         
    923   654    31023.8926   353                  68412.4321    18795         
   1435   813    26080.6998   316                  68412.4321    22909         
   2080  1214      103.1577   291                  68412.4321    28372         
   2985  1837     3544.5690   304                  68412.4321    32524         
   3927  2706    19103.6256   328                  68412.4321    34731         
   4564  3358     2327.0963   304                  68412.4321    35988         
   5281  4201    -4825.5907   283                  68412.4321    37476         
   6491  4641     5829.6429   303                  68412.4321    37941         
* 10531+ 8267                        -1027.1566    68412.4321              --- 
Elapsed time = 28.52 sec. (9416.97 ticks, tree = 68.20 MB, solutions = 1)
* 11168  8264      integral     0     9472.4690    68412.4321    43400  622.22%
  11503  2823    40568.4291   143     9472.4690    51640.4507    57695  445.16%
  13085   878    11917.9379    95     9472.4690    50754.9915    69483  435.82%
  15222  1895    17424.0940    71     9472.4690    41222.5194    84213  335.18%
  17883  3173    15857.0121    90     9472.4690    35489.9175   116651  274.66%
  20600  4111    11888.5037    62     9472.4690    30147.3267   158147  218.26%
  23377  4922        cutoff           9472.4690    25381.8856   213007  167.95%
  25017  5181        cutoff           9472.4690    23509.1286   234339  148.18%
  26130  5213    15245.5694   123     9472.4690    19117.5255   235747  101.82%
  28889  4550        cutoff           9472.4690    14950.3679   293426   57.83%
  31378  4457    13171.7575    69     9472.4690    14391.4930   300533   51.93%
Elapsed time = 88.58 sec. (23441.39 ticks, tree = 31.84 MB, solutions = 2)
  34307  4464    11902.8453    80     9472.4690    14336.2897   301228   51.35%
  37706  4594    12658.6704    63     9472.4690    13680.9056   302737   44.43%
  41177  6332    13058.2386    73     9472.4690    13217.4330   317623   39.54%
  44625  7840    13148.4886    69     9472.4690    13170.1903   329406   39.04%
  48155  8562    12782.5416    64     9472.4690    13152.7959   336707   38.85%
  51497 11558    12604.5275    71     9472.4690    13137.5373   364611   38.69%
  54816 13212    12563.6384    63     9472.4690    13127.5189   380466   38.59%
  58379 12452    12825.1388    63     9472.4690    13114.9188   373033   38.45%
  62031 13839        cutoff           9472.4690    13099.5892   386542   38.29%
  65772 15753    12521.2252    62     9472.4690    13089.4405   404805   38.18%
Elapsed time = 144.31 sec. (32981.27 ticks, tree = 125.82 MB, solutions = 2)
  69603 17757    12604.3535    70     9472.4690    13079.2840   423128   38.08%
  73469 17727    12760.1658    63     9472.4690    13060.4311   422677   37.88%
  77303 19949    infeasible           9472.4690    13055.3961   442517   37.82%
  80963 21481    12515.6945    64     9472.4690    13053.4618   455957   37.80%
  84641 24817    12731.6645    61     9472.4690    13035.2681   484136   37.61%
  88382 23304    12512.7057    68     9472.4690    13025.0050   471643   37.50%
  91753 25848    12936.8351    75     9472.4690    13023.3885   492971   37.49%
  94676 28538    12491.2628    59     9472.4690    13019.9611   517098   37.45%
  97251 28587    12920.0695    60     9472.4690    13009.2068   517518   37.34%
 100532 29318    12597.0088    62     9472.4690    13009.2068   524231   37.34%
Elapsed time = 198.31 sec. (42519.99 ticks, tree = 238.95 MB, solutions = 2)
 104222 31652    12248.1981    60     9472.4690    13003.2615   547945   37.27%
 107895 30102    11602.0308    61     9472.4690    12982.5270   531002   37.06%
 111417 33228    12294.2341    63     9472.4690    12982.5270   570389   37.06%
 114910 31328    12413.8134    58     9472.4690    12982.5270   544730   37.06%
 118096 34367    12676.0020    63     9472.4690    12973.0790   588320   36.96%
 120783 36735        cutoff           9472.4690    12968.2029   629143   36.90%
 123350 34575    12440.6119    66     9472.4690    12948.7898   591513   36.70%
 126009 35442    12746.0759    65     9472.4690    12948.7898   606138   36.70%
 128741 37010    12032.1441    61     9472.4690    12930.1488   633732   36.50%
 131843 38263    infeasible           9472.4690    12930.1488   655598   36.50%
Elapsed time = 250.31 sec. (52059.43 ticks, tree = 312.74 MB, solutions = 2)
 135223 37216        cutoff           9472.4690    12924.8879   637758   36.45%
 138889 37563    12159.3812    65     9472.4690    12844.3138   646290   35.60%
 142706 42447    12715.7324    59     9472.4690    12844.3138   715599   35.60%
 146394 43271        cutoff           9472.4690    12844.3138   731290   35.60%
 150147 40212        cutoff           9472.4690    12823.5453   685177   35.38%
 153853 40895    10091.3330    60     9472.4690    12806.5346   695051   35.20%
 157445 42209    12209.3718    61     9472.4690    12790.1692   710627   35.02%
 160928 43433    12424.2164    67     9472.4690    12790.1692   732757   35.02%
 164148 43956    12671.3274    71     9472.4690    12768.6710   743924   34.80%
 167029 44346    12750.7767    62     9472.4690    12768.6710   750116   34.80%
Elapsed time = 298.42 sec. (61597.21 ticks, tree = 362.79 MB, solutions = 2)
 169559 44833    12538.8574    68     9472.4690    12768.3716   759801   34.79%
 172038 47108    12464.4316    61     9472.4690    12767.0450   810343   34.78%
 174231 46118    infeasible           9472.4690    12759.1946   785939   34.70%
 176594 47335    12668.0778    62     9472.4690    12746.2737   818160   34.56%
 179387 47535    12368.7390    65     9472.4690    12738.0263   825797   34.47%
 182870 47153    12132.6182    61     9472.4690    12729.2999   812420   34.38%
 186495 47370    12323.9242    69     9472.4690    12729.2999   819554   34.38%
 190093 49306    12278.0898    68     9472.4690    12729.2999   873489   34.38%
 193548 48150        cutoff           9472.4690    12728.5216   843183   34.37%
 196890 50421    12094.5544    72     9472.4690    12728.5216   897015   34.37%
Elapsed time = 343.06 sec. (71137.06 ticks, tree = 412.15 MB, solutions = 2)
 200116 50456    12304.3471    67     9472.4690    12728.5216   897486   34.37%
 202867 49698    12146.9544    67     9472.4690    12728.5216   883328   34.37%
 204963 50116    12102.6584    66     9472.4690    12728.5216   891717   34.37%
 206168 51011    12310.3703    69     9472.4690    12728.5216   910413   34.37%

GUB cover cuts applied:  1
Clique cuts applied:  12
Cover cuts applied:  25
Implied bound cuts applied:  44
Flow cuts applied:  311
Mixed integer rounding cuts applied:  38
Gomory fractional cuts applied:  89

Root node processing (before b&c):
  Real time             =   10.06 sec. (6313.00 ticks)
Parallel b&c, 32 threads:
  Real time             =  337.16 sec. (68712.48 ticks)
  Sync time (average)   =    2.06 sec.
  Wait time (average)   =    0.27 sec.
                          ------------
Total (root+branch&cut) =  347.22 sec. (75025.48 ticks)

Solution pool: 2 solutions saved.

MIP - Deterministic time limit exceeded, integer feasible:  Objective =  9.4724690399e+03
Current MIP best bound =  1.2690742448e+04 (gap = 3218.27, 33.98%)
Solution time =  347.27 sec.  Iterations = 978804  Nodes = 206213 (54131)
Deterministic time = 75025.63 ticks  (216.05 ticks/sec)

CPLEX> Incumbent solution written to file 'C:\Users\llavin\Desktop\test919\logs\tmpg3_pmz7a.cplex.sol'.
CPLEX> Exporting results... 
